orario = [19.15, 19.15, 20.45, 19.45, 21.15, 20.15, 21.15, 21.30, 21.30, 19.30];
num_pizze = [3, 2, 3, 4, 3, 6, 2, 6, 3, 2];
dest = [24, 254, 285, 35, 103, 263, 22, 242, 199, 141];
N = 10;
k = 297;
d = 3;
